 Lithium niobate Supercell              
   1.00000000000000     
    10.2919998168000006    0.0000000000000000    0.0000000000000000
    -5.1459999084000003    8.9131332971999999    0.0000000000000000
     0.0000000000000000    0.0000000000000000   27.7180004119999985
   Nb   O    Li
    48   144    48
Direct
 -0.0000000000000000 -0.0000000000000000  0.4840019289166491
  0.5000000000000000 -0.0000000000000000  0.4840019289166491
 -0.0000000000000000  0.5000000000000000  0.4840019289166491
  0.5000000000000000  0.5000000000000000  0.4840019289166491
 -0.0000000000000000 -0.0000000000000000  0.9840019289166489
  0.5000000000000000 -0.0000000000000000  0.9840019289166489
 -0.0000000000000000  0.5000000000000000  0.9840019289166489
  0.5000000000000000  0.5000000000000000  0.9840019289166489
 -0.0000000000000000 -0.0000000000000000  0.2340019289166491
  0.5000000000000000 -0.0000000000000000  0.2340019289166491
 -0.0000000000000000  0.5000000000000000  0.2340019289166491
  0.5000000000000000  0.5000000000000000  0.2340019289166491
 -0.0000000000000000 -0.0000000000000000  0.7340019289166489
  0.5000000000000000 -0.0000000000000000  0.7340019289166489
 -0.0000000000000000  0.5000000000000000  0.7340019289166489
  0.5000000000000000  0.5000000000000000  0.7340019289166489
  0.3333333435000014  0.1666666715000034  0.1506686004166525
  0.8333333435000014  0.1666666715000034  0.1506686004166525
  0.3333333435000014  0.6666666715000034  0.1506686004166525
  0.8333333435000014  0.6666666715000034  0.1506686004166525
  0.3333333435000014  0.1666666715000034  0.6506686004166523
  0.8333333435000014  0.1666666715000034  0.6506686004166523
  0.3333333435000014  0.6666666715000034  0.6506686004166523
  0.8333333435000014  0.6666666715000034  0.6506686004166523
  0.3333333435000014  0.1666666715000034  0.4006685854166477
  0.8333333435000014  0.1666666715000034  0.4006685854166477
  0.3333333435000014  0.6666666715000034  0.4006685854166477
  0.8333333435000014  0.6666666715000034  0.4006685854166477
  0.3333333435000014  0.1666666715000034  0.9006685854166475
  0.8333333435000014  0.1666666715000034  0.9006685854166475
  0.3333333435000014  0.6666666715000034  0.9006685854166475
  0.8333333435000014  0.6666666715000034  0.9006685854166475
  0.1666666715000034  0.3333333435000014  0.3173352719166487
  0.6666666715000034  0.3333333435000014  0.3173352719166487
  0.1666666715000034  0.8333333435000014  0.3173352719166487
  0.6666666715000034  0.8333333435000014  0.3173352719166487
  0.1666666715000034  0.3333333435000014  0.8173352719166486
  0.6666666715000034  0.3333333435000014  0.8173352719166486
  0.1666666715000034  0.8333333435000014  0.8173352719166486
  0.6666666715000034  0.8333333435000014  0.8173352719166486
  0.1666666715000034  0.3333333435000014  0.0673352644166499
  0.6666666715000034  0.3333333435000014  0.0673352644166499
  0.1666666715000034  0.8333333435000014  0.0673352644166499
  0.6666666715000034  0.8333333435000014  0.0673352644166499
  0.1666666715000034  0.3333333435000014  0.5673352644166497
  0.6666666715000034  0.3333333435000014  0.5673352644166497
  0.1666666715000034  0.8333333435000014  0.5673352644166497
  0.6666666715000034  0.8333333435000014  0.5673352644166497
  0.4803722060897559  0.3271861930874219  0.4524125587141708
  0.9803722060897559  0.3271861930874219  0.4524125587141708
  0.4803722060897559  0.8271861930874220  0.4524125587141708
  0.9803722060897559  0.8271861930874220  0.4524125587141708
  0.4803722060897559  0.3271861930874219  0.9524125587141707
  0.9803722060897559  0.3271861930874219  0.9524125587141707
  0.4803722060897559  0.8271861930874220  0.9524125587141707
  0.9803722060897559  0.8271861930874220  0.9524125587141707
  0.1728138069125780  0.1531860130023340  0.4524125587141708
  0.6728138069125780  0.1531860130023340  0.4524125587141708
  0.1728138069125780  0.6531860130023340  0.4524125587141708
  0.6728138069125780  0.6531860130023340  0.4524125587141708
  0.1728138069125780  0.1531860130023340  0.9524125587141707
  0.6728138069125780  0.1531860130023340  0.9524125587141707
  0.1728138069125780  0.6531860130023340  0.9524125587141707
  0.6728138069125780  0.6531860130023340  0.9524125587141707
  0.3468139869976661  0.0196277939102441  0.4524125587141708
  0.8468139869976660  0.0196277939102441  0.4524125587141708
  0.3468139869976661  0.5196277939102441  0.4524125587141708
  0.8468139869976660  0.5196277939102441  0.4524125587141708
  0.3468139869976661  0.0196277939102441  0.9524125587141707
  0.8468139869976660  0.0196277939102441  0.9524125587141707
  0.3468139869976661  0.5196277939102441  0.9524125587141707
  0.8468139869976660  0.5196277939102441  0.9524125587141707
  0.1728138069125780  0.0196277939102441  0.2024125587141709
  0.6728138069125780  0.0196277939102441  0.2024125587141709
  0.1728138069125780  0.5196277939102441  0.2024125587141709
  0.6728138069125780  0.5196277939102441  0.2024125587141709
  0.1728138069125780  0.0196277939102441  0.7024125587141707
  0.6728138069125780  0.0196277939102441  0.7024125587141707
  0.1728138069125780  0.5196277939102441  0.7024125587141707
  0.6728138069125780  0.5196277939102441  0.7024125587141707
  0.3468139869976661  0.3271861930874219  0.2024125587141709
  0.8468139869976660  0.3271861930874219  0.2024125587141709
  0.3468139869976661  0.8271861930874220  0.2024125587141709
  0.8468139869976660  0.8271861930874220  0.2024125587141709
  0.3468139869976661  0.3271861930874219  0.7024125587141707
  0.8468139869976660  0.3271861930874219  0.7024125587141707
  0.3468139869976661  0.8271861930874220  0.7024125587141707
  0.8468139869976660  0.8271861930874220  0.7024125587141707
  0.4803722060897559  0.1531860130023340  0.2024125587141709
  0.9803722060897559  0.1531860130023340  0.2024125587141709
  0.4803722060897559  0.6531860130023340  0.2024125587141709
  0.9803722060897559  0.6531860130023340  0.2024125587141709
  0.4803722060897559  0.1531860130023340  0.7024125587141707
  0.9803722060897559  0.1531860130023340  0.7024125587141707
  0.4803722060897559  0.6531860130023340  0.7024125587141707
  0.9803722060897559  0.6531860130023340  0.7024125587141707
  0.3137055495897573  0.4938528500874223  0.1190792232141701
  0.8137055495897574  0.4938528500874223  0.1190792232141701
  0.3137055495897573  0.9938528500874224  0.1190792232141701
  0.8137055495897574  0.9938528500874224  0.1190792232141701
  0.3137055495897573  0.4938528500874223  0.6190792232141700
  0.8137055495897574  0.4938528500874223  0.6190792232141700
  0.3137055495897573  0.9938528500874224  0.6190792232141700
  0.8137055495897574  0.9938528500874224  0.6190792232141700
  0.0061471404125787  0.3198526700023343  0.1190792232141701
  0.5061471404125786  0.3198526700023343  0.1190792232141701
  0.0061471404125787  0.8198526700023344  0.1190792232141701
  0.5061471404125786  0.8198526700023344  0.1190792232141701
  0.0061471404125787  0.3198526700023343  0.6190792232141700
  0.5061471404125786  0.3198526700023343  0.6190792232141700
  0.0061471404125787  0.8198526700023344  0.6190792232141700
  0.5061471404125786  0.8198526700023344  0.6190792232141700
  0.1801473154976627  0.1862944654102404  0.1190792232141701
  0.6801473154976626  0.1862944654102404  0.1190792232141701
  0.1801473154976627  0.6862944654102403  0.1190792232141701
  0.6801473154976626  0.6862944654102403  0.1190792232141701
  0.1801473154976627  0.1862944654102404  0.6190792232141700
  0.6801473154976626  0.1862944654102404  0.6190792232141700
  0.1801473154976627  0.6862944654102403  0.6190792232141700
  0.6801473154976626  0.6862944654102403  0.6190792232141700
  0.0061471404125787  0.1862944654102404  0.3690792157141712
  0.5061471404125786  0.1862944654102404  0.3690792157141712
  0.0061471404125787  0.6862944654102403  0.3690792157141712
  0.5061471404125786  0.6862944654102403  0.3690792157141712
  0.0061471404125787  0.1862944654102404  0.8690792157141711
  0.5061471404125786  0.1862944654102404  0.8690792157141711
  0.0061471404125787  0.6862944654102403  0.8690792157141711
  0.5061471404125786  0.6862944654102403  0.8690792157141711
  0.1801473154976627  0.4938528500874223  0.3690792157141712
  0.6801473154976626  0.4938528500874223  0.3690792157141712
  0.1801473154976627  0.9938528500874224  0.3690792157141712
  0.6801473154976626  0.9938528500874224  0.3690792157141712
  0.1801473154976627  0.4938528500874223  0.8690792157141711
  0.6801473154976626  0.4938528500874223  0.8690792157141711
  0.1801473154976627  0.9938528500874224  0.8690792157141711
  0.6801473154976626  0.9938528500874224  0.8690792157141711
  0.3137055495897573  0.3198526700023343  0.3690792157141712
  0.8137055495897574  0.3198526700023343  0.3690792157141712
  0.3137055495897573  0.8198526700023344  0.3690792157141712
  0.8137055495897574  0.8198526700023344  0.3690792157141712
  0.3137055495897573  0.3198526700023343  0.8690792157141711
  0.8137055495897574  0.3198526700023343  0.8690792157141711
  0.3137055495897573  0.8198526700023344  0.8690792157141711
  0.8137055495897574  0.8198526700023344  0.8690792157141711
  0.1470388775897592  0.1605195215874257  0.2857459022141722
  0.6470388775897593  0.1605195215874257  0.2857459022141722
  0.1470388775897592  0.6605195215874258  0.2857459022141722
  0.6470388775897593  0.6605195215874258  0.2857459022141722
  0.1470388775897592  0.1605195215874257  0.7857459022141722
  0.6470388775897593  0.1605195215874257  0.7857459022141722
  0.1470388775897592  0.6605195215874258  0.7857459022141722
  0.6470388775897593  0.6605195215874258  0.7857459022141722
  0.3394804634125766  0.4865193565023354  0.2857459022141722
  0.8394804634125765  0.4865193565023354  0.2857459022141722
  0.3394804634125766  0.9865193565023355  0.2857459022141722
  0.8394804634125765  0.9865193565023355  0.2857459022141722
  0.3394804634125766  0.4865193565023354  0.7857459022141722
  0.8394804634125765  0.4865193565023354  0.7857459022141722
  0.3394804634125766  0.9865193565023355  0.7857459022141722
  0.8394804634125765  0.9865193565023355  0.7857459022141722
  0.0134806529976636  0.3529611369102437  0.2857459022141722
  0.5134806529976635  0.3529611369102437  0.2857459022141722
  0.0134806529976636  0.8529611369102437  0.2857459022141722
  0.5134806529976635  0.8529611369102437  0.2857459022141722
  0.0134806529976636  0.3529611369102437  0.7857459022141722
  0.5134806529976635  0.3529611369102437  0.7857459022141722
  0.0134806529976636  0.8529611369102437  0.7857459022141722
  0.5134806529976635  0.8529611369102437  0.7857459022141722
  0.3394804634125766  0.3529611369102437  0.0357458912141749
  0.8394804634125765  0.3529611369102437  0.0357458912141749
  0.3394804634125766  0.8529611369102437  0.0357458912141749
  0.8394804634125765  0.8529611369102437  0.0357458912141749
  0.3394804634125766  0.3529611369102437  0.5357458912141748
  0.8394804634125765  0.3529611369102437  0.5357458912141748
  0.3394804634125766  0.8529611369102437  0.5357458912141748
  0.8394804634125765  0.8529611369102437  0.5357458912141748
  0.0134806529976636  0.1605195215874257  0.0357458912141749
  0.5134806529976635  0.1605195215874257  0.0357458912141749
  0.0134806529976636  0.6605195215874258  0.0357458912141749
  0.5134806529976635  0.6605195215874258  0.0357458912141749
  0.0134806529976636  0.1605195215874257  0.5357458912141748
  0.5134806529976635  0.1605195215874257  0.5357458912141748
  0.0134806529976636  0.6605195215874258  0.5357458912141748
  0.5134806529976635  0.6605195215874258  0.5357458912141748
  0.1470388775897592  0.4865193565023354  0.0357458912141749
  0.6470388775897593  0.4865193565023354  0.0357458912141749
  0.1470388775897592  0.9865193565023355  0.0357458912141749
  0.6470388775897593  0.9865193565023355  0.0357458912141749
  0.1470388775897592  0.4865193565023354  0.5357458912141748
  0.6470388775897593  0.4865193565023354  0.5357458912141748
  0.1470388775897592  0.9865193565023355  0.5357458912141748
  0.6470388775897593  0.9865193565023355  0.5357458912141748
 -0.0000000000000000 -0.0000000000000000  0.3430603699408331
  0.5000000000000000 -0.0000000000000000  0.3430603699408331
 -0.0000000000000000  0.5000000000000000  0.3430603699408331
  0.5000000000000000  0.5000000000000000  0.3430603699408331
 -0.0000000000000000 -0.0000000000000000  0.8430603699408331
  0.5000000000000000 -0.0000000000000000  0.8430603699408331
 -0.0000000000000000  0.5000000000000000  0.8430603699408331
  0.5000000000000000  0.5000000000000000  0.8430603699408331
 -0.0000000000000000 -0.0000000000000000  0.0930603699408331
  0.5000000000000000 -0.0000000000000000  0.0930603699408331
 -0.0000000000000000  0.5000000000000000  0.0930603699408331
  0.5000000000000000  0.5000000000000000  0.0930603699408331
 -0.0000000000000000 -0.0000000000000000  0.5930603699408331
  0.5000000000000000 -0.0000000000000000  0.5930603699408331
 -0.0000000000000000  0.5000000000000000  0.5930603699408331
  0.5000000000000000  0.5000000000000000  0.5930603699408331
  0.3333333435000014  0.1666666715000034  0.0097270369408343
  0.8333333435000014  0.1666666715000034  0.0097270369408343
  0.3333333435000014  0.6666666715000034  0.0097270369408343
  0.8333333435000014  0.6666666715000034  0.0097270369408343
  0.3333333435000014  0.1666666715000034  0.5097270369408343
  0.8333333435000014  0.1666666715000034  0.5097270369408343
  0.3333333435000014  0.6666666715000034  0.5097270369408343
  0.8333333435000014  0.6666666715000034  0.5097270369408343
  0.3333333435000014  0.1666666715000034  0.2597270269408335
  0.8333333435000014  0.1666666715000034  0.2597270269408335
  0.3333333435000014  0.6666666715000034  0.2597270269408335
  0.8333333435000014  0.6666666715000034  0.2597270269408335
  0.3333333435000014  0.1666666715000034  0.7597270269408335
  0.8333333435000014  0.1666666715000034  0.7597270269408335
  0.3333333435000014  0.6666666715000034  0.7597270269408335
  0.8333333435000014  0.6666666715000034  0.7597270269408335
  0.1666666715000034  0.3333333435000014  0.1763936984408297
  0.6666666715000034  0.3333333435000014  0.1763936984408297
  0.1666666715000034  0.8333333435000014  0.1763936984408297
  0.6666666715000034  0.8333333435000014  0.1763936984408297
  0.1666666715000034  0.3333333435000014  0.6763936984408297
  0.6666666715000034  0.3333333435000014  0.6763936984408297
  0.1666666715000034  0.8333333435000014  0.6763936984408297
  0.6666666715000034  0.8333333435000014  0.6763936984408297
  0.1666666715000034  0.3333333435000014  0.4263937134408345
  0.6666666715000034  0.3333333435000014  0.4263937134408345
  0.1666666715000034  0.8333333435000014  0.4263937134408345
  0.6666666715000034  0.8333333435000014  0.4263937134408345
  0.1666666715000034  0.3333333435000014  0.9263937134408345
  0.6666666715000034  0.3333333435000014  0.9263937134408345
  0.1666666715000034  0.8333333435000014  0.9263937134408345
  0.6666666715000034  0.8333333435000014  0.9263937134408345
 
  0.00000000E+00  0.00000000E+00  0.00000000E+00
  0.00000000E+00  0.00000000E+00  0.00000000E+00
  0.00000000E+00  0.00000000E+00  0.00000000E+00
  0.00000000E+00  0.00000000E+00  0.00000000E+00
  0.00000000E+00  0.00000000E+00  0.00000000E+00
  0.00000000E+00  0.00000000E+00  0.00000000E+00
  0.00000000E+00  0.00000000E+00  0.00000000E+00
  0.00000000E+00  0.00000000E+00  0.00000000E+00
  0.00000000E+00  0.00000000E+00  0.00000000E+00
  0.00000000E+00  0.00000000E+00  0.00000000E+00
  0.00000000E+00  0.00000000E+00  0.00000000E+00
  0.00000000E+00  0.00000000E+00  0.00000000E+00
  0.00000000E+00  0.00000000E+00  0.00000000E+00
  0.00000000E+00  0.00000000E+00  0.00000000E+00
  0.00000000E+00  0.00000000E+00  0.00000000E+00
  0.00000000E+00  0.00000000E+00  0.00000000E+00
  0.00000000E+00  0.00000000E+00  0.00000000E+00
  0.00000000E+00  0.00000000E+00  0.00000000E+00
  0.00000000E+00  0.00000000E+00  0.00000000E+00
  0.00000000E+00  0.00000000E+00  0.00000000E+00
  0.00000000E+00  0.00000000E+00  0.00000000E+00
  0.00000000E+00  0.00000000E+00  0.00000000E+00
  0.00000000E+00  0.00000000E+00  0.00000000E+00
  0.00000000E+00  0.00000000E+00  0.00000000E+00
  0.00000000E+00  0.00000000E+00  0.00000000E+00
  0.00000000E+00  0.00000000E+00  0.00000000E+00
  0.00000000E+00  0.00000000E+00  0.00000000E+00
  0.00000000E+00  0.00000000E+00  0.00000000E+00
  0.00000000E+00  0.00000000E+00  0.00000000E+00
  0.00000000E+00  0.00000000E+00  0.00000000E+00
  0.00000000E+00  0.00000000E+00  0.00000000E+00
  0.00000000E+00  0.00000000E+00  0.00000000E+00
  0.00000000E+00  0.00000000E+00  0.00000000E+00
  0.00000000E+00  0.00000000E+00  0.00000000E+00
  0.00000000E+00  0.00000000E+00  0.00000000E+00
  0.00000000E+00  0.00000000E+00  0.00000000E+00
  0.00000000E+00  0.00000000E+00  0.00000000E+00
  0.00000000E+00  0.00000000E+00  0.00000000E+00
  0.00000000E+00  0.00000000E+00  0.00000000E+00
  0.00000000E+00  0.00000000E+00  0.00000000E+00
  0.00000000E+00  0.00000000E+00  0.00000000E+00
  0.00000000E+00  0.00000000E+00  0.00000000E+00
  0.00000000E+00  0.00000000E+00  0.00000000E+00
  0.00000000E+00  0.00000000E+00  0.00000000E+00
  0.00000000E+00  0.00000000E+00  0.00000000E+00
  0.00000000E+00  0.00000000E+00  0.00000000E+00
  0.00000000E+00  0.00000000E+00  0.00000000E+00
  0.00000000E+00  0.00000000E+00  0.00000000E+00
  0.00000000E+00  0.00000000E+00  0.00000000E+00
  0.00000000E+00  0.00000000E+00  0.00000000E+00
  0.00000000E+00  0.00000000E+00  0.00000000E+00
  0.00000000E+00  0.00000000E+00  0.00000000E+00
  0.00000000E+00  0.00000000E+00  0.00000000E+00
  0.00000000E+00  0.00000000E+00  0.00000000E+00
  0.00000000E+00  0.00000000E+00  0.00000000E+00
  0.00000000E+00  0.00000000E+00  0.00000000E+00
  0.00000000E+00  0.00000000E+00  0.00000000E+00
  0.00000000E+00  0.00000000E+00  0.00000000E+00
  0.00000000E+00  0.00000000E+00  0.00000000E+00
  0.00000000E+00  0.00000000E+00  0.00000000E+00
  0.00000000E+00  0.00000000E+00  0.00000000E+00
  0.00000000E+00  0.00000000E+00  0.00000000E+00
  0.00000000E+00  0.00000000E+00  0.00000000E+00
  0.00000000E+00  0.00000000E+00  0.00000000E+00
  0.00000000E+00  0.00000000E+00  0.00000000E+00
  0.00000000E+00  0.00000000E+00  0.00000000E+00
  0.00000000E+00  0.00000000E+00  0.00000000E+00
  0.00000000E+00  0.00000000E+00  0.00000000E+00
  0.00000000E+00  0.00000000E+00  0.00000000E+00
  0.00000000E+00  0.00000000E+00  0.00000000E+00
  0.00000000E+00  0.00000000E+00  0.00000000E+00
  0.00000000E+00  0.00000000E+00  0.00000000E+00
  0.00000000E+00  0.00000000E+00  0.00000000E+00
  0.00000000E+00  0.00000000E+00  0.00000000E+00
  0.00000000E+00  0.00000000E+00  0.00000000E+00
  0.00000000E+00  0.00000000E+00  0.00000000E+00
  0.00000000E+00  0.00000000E+00  0.00000000E+00
  0.00000000E+00  0.00000000E+00  0.00000000E+00
  0.00000000E+00  0.00000000E+00  0.00000000E+00
  0.00000000E+00  0.00000000E+00  0.00000000E+00
  0.00000000E+00  0.00000000E+00  0.00000000E+00
  0.00000000E+00  0.00000000E+00  0.00000000E+00
  0.00000000E+00  0.00000000E+00  0.00000000E+00
  0.00000000E+00  0.00000000E+00  0.00000000E+00
  0.00000000E+00  0.00000000E+00  0.00000000E+00
  0.00000000E+00  0.00000000E+00  0.00000000E+00
  0.00000000E+00  0.00000000E+00  0.00000000E+00
  0.00000000E+00  0.00000000E+00  0.00000000E+00
  0.00000000E+00  0.00000000E+00  0.00000000E+00
  0.00000000E+00  0.00000000E+00  0.00000000E+00
  0.00000000E+00  0.00000000E+00  0.00000000E+00
  0.00000000E+00  0.00000000E+00  0.00000000E+00
  0.00000000E+00  0.00000000E+00  0.00000000E+00
  0.00000000E+00  0.00000000E+00  0.00000000E+00
  0.00000000E+00  0.00000000E+00  0.00000000E+00
  0.00000000E+00  0.00000000E+00  0.00000000E+00
  0.00000000E+00  0.00000000E+00  0.00000000E+00
  0.00000000E+00  0.00000000E+00  0.00000000E+00
  0.00000000E+00  0.00000000E+00  0.00000000E+00
  0.00000000E+00  0.00000000E+00  0.00000000E+00
  0.00000000E+00  0.00000000E+00  0.00000000E+00
  0.00000000E+00  0.00000000E+00  0.00000000E+00
  0.00000000E+00  0.00000000E+00  0.00000000E+00
  0.00000000E+00  0.00000000E+00  0.00000000E+00
  0.00000000E+00  0.00000000E+00  0.00000000E+00
  0.00000000E+00  0.00000000E+00  0.00000000E+00
  0.00000000E+00  0.00000000E+00  0.00000000E+00
  0.00000000E+00  0.00000000E+00  0.00000000E+00
  0.00000000E+00  0.00000000E+00  0.00000000E+00
  0.00000000E+00  0.00000000E+00  0.00000000E+00
  0.00000000E+00  0.00000000E+00  0.00000000E+00
  0.00000000E+00  0.00000000E+00  0.00000000E+00
  0.00000000E+00  0.00000000E+00  0.00000000E+00
  0.00000000E+00  0.00000000E+00  0.00000000E+00
  0.00000000E+00  0.00000000E+00  0.00000000E+00
  0.00000000E+00  0.00000000E+00  0.00000000E+00
  0.00000000E+00  0.00000000E+00  0.00000000E+00
  0.00000000E+00  0.00000000E+00  0.00000000E+00
  0.00000000E+00  0.00000000E+00  0.00000000E+00
  0.00000000E+00  0.00000000E+00  0.00000000E+00
  0.00000000E+00  0.00000000E+00  0.00000000E+00
  0.00000000E+00  0.00000000E+00  0.00000000E+00
  0.00000000E+00  0.00000000E+00  0.00000000E+00
  0.00000000E+00  0.00000000E+00  0.00000000E+00
  0.00000000E+00  0.00000000E+00  0.00000000E+00
  0.00000000E+00  0.00000000E+00  0.00000000E+00
  0.00000000E+00  0.00000000E+00  0.00000000E+00
  0.00000000E+00  0.00000000E+00  0.00000000E+00
  0.00000000E+00  0.00000000E+00  0.00000000E+00
  0.00000000E+00  0.00000000E+00  0.00000000E+00
  0.00000000E+00  0.00000000E+00  0.00000000E+00
  0.00000000E+00  0.00000000E+00  0.00000000E+00
  0.00000000E+00  0.00000000E+00  0.00000000E+00
  0.00000000E+00  0.00000000E+00  0.00000000E+00
  0.00000000E+00  0.00000000E+00  0.00000000E+00
  0.00000000E+00  0.00000000E+00  0.00000000E+00
  0.00000000E+00  0.00000000E+00  0.00000000E+00
  0.00000000E+00  0.00000000E+00  0.00000000E+00
  0.00000000E+00  0.00000000E+00  0.00000000E+00
  0.00000000E+00  0.00000000E+00  0.00000000E+00
  0.00000000E+00  0.00000000E+00  0.00000000E+00
  0.00000000E+00  0.00000000E+00  0.00000000E+00
  0.00000000E+00  0.00000000E+00  0.00000000E+00
  0.00000000E+00  0.00000000E+00  0.00000000E+00
  0.00000000E+00  0.00000000E+00  0.00000000E+00
  0.00000000E+00  0.00000000E+00  0.00000000E+00
  0.00000000E+00  0.00000000E+00  0.00000000E+00
  0.00000000E+00  0.00000000E+00  0.00000000E+00
  0.00000000E+00  0.00000000E+00  0.00000000E+00
  0.00000000E+00  0.00000000E+00  0.00000000E+00
  0.00000000E+00  0.00000000E+00  0.00000000E+00
  0.00000000E+00  0.00000000E+00  0.00000000E+00
  0.00000000E+00  0.00000000E+00  0.00000000E+00
  0.00000000E+00  0.00000000E+00  0.00000000E+00
  0.00000000E+00  0.00000000E+00  0.00000000E+00
  0.00000000E+00  0.00000000E+00  0.00000000E+00
  0.00000000E+00  0.00000000E+00  0.00000000E+00
  0.00000000E+00  0.00000000E+00  0.00000000E+00
  0.00000000E+00  0.00000000E+00  0.00000000E+00
  0.00000000E+00  0.00000000E+00  0.00000000E+00
  0.00000000E+00  0.00000000E+00  0.00000000E+00
  0.00000000E+00  0.00000000E+00  0.00000000E+00
  0.00000000E+00  0.00000000E+00  0.00000000E+00
  0.00000000E+00  0.00000000E+00  0.00000000E+00
  0.00000000E+00  0.00000000E+00  0.00000000E+00
  0.00000000E+00  0.00000000E+00  0.00000000E+00
  0.00000000E+00  0.00000000E+00  0.00000000E+00
  0.00000000E+00  0.00000000E+00  0.00000000E+00
  0.00000000E+00  0.00000000E+00  0.00000000E+00
  0.00000000E+00  0.00000000E+00  0.00000000E+00
  0.00000000E+00  0.00000000E+00  0.00000000E+00
  0.00000000E+00  0.00000000E+00  0.00000000E+00
  0.00000000E+00  0.00000000E+00  0.00000000E+00
  0.00000000E+00  0.00000000E+00  0.00000000E+00
  0.00000000E+00  0.00000000E+00  0.00000000E+00
  0.00000000E+00  0.00000000E+00  0.00000000E+00
  0.00000000E+00  0.00000000E+00  0.00000000E+00
  0.00000000E+00  0.00000000E+00  0.00000000E+00
  0.00000000E+00  0.00000000E+00  0.00000000E+00
  0.00000000E+00  0.00000000E+00  0.00000000E+00
  0.00000000E+00  0.00000000E+00  0.00000000E+00
  0.00000000E+00  0.00000000E+00  0.00000000E+00
  0.00000000E+00  0.00000000E+00  0.00000000E+00
  0.00000000E+00  0.00000000E+00  0.00000000E+00
  0.00000000E+00  0.00000000E+00  0.00000000E+00
  0.00000000E+00  0.00000000E+00  0.00000000E+00
  0.00000000E+00  0.00000000E+00  0.00000000E+00
  0.00000000E+00  0.00000000E+00  0.00000000E+00
  0.00000000E+00  0.00000000E+00  0.00000000E+00
  0.00000000E+00  0.00000000E+00  0.00000000E+00
  0.00000000E+00  0.00000000E+00  0.00000000E+00
  0.00000000E+00  0.00000000E+00  0.00000000E+00
  0.00000000E+00  0.00000000E+00  0.00000000E+00
  0.00000000E+00  0.00000000E+00  0.00000000E+00
  0.00000000E+00  0.00000000E+00  0.00000000E+00
  0.00000000E+00  0.00000000E+00  0.00000000E+00
  0.00000000E+00  0.00000000E+00  0.00000000E+00
  0.00000000E+00  0.00000000E+00  0.00000000E+00
  0.00000000E+00  0.00000000E+00  0.00000000E+00
  0.00000000E+00  0.00000000E+00  0.00000000E+00
  0.00000000E+00  0.00000000E+00  0.00000000E+00
  0.00000000E+00  0.00000000E+00  0.00000000E+00
  0.00000000E+00  0.00000000E+00  0.00000000E+00
  0.00000000E+00  0.00000000E+00  0.00000000E+00
  0.00000000E+00  0.00000000E+00  0.00000000E+00
  0.00000000E+00  0.00000000E+00  0.00000000E+00
  0.00000000E+00  0.00000000E+00  0.00000000E+00
  0.00000000E+00  0.00000000E+00  0.00000000E+00
  0.00000000E+00  0.00000000E+00  0.00000000E+00
  0.00000000E+00  0.00000000E+00  0.00000000E+00
  0.00000000E+00  0.00000000E+00  0.00000000E+00
  0.00000000E+00  0.00000000E+00  0.00000000E+00
  0.00000000E+00  0.00000000E+00  0.00000000E+00
  0.00000000E+00  0.00000000E+00  0.00000000E+00
  0.00000000E+00  0.00000000E+00  0.00000000E+00
  0.00000000E+00  0.00000000E+00  0.00000000E+00
  0.00000000E+00  0.00000000E+00  0.00000000E+00
  0.00000000E+00  0.00000000E+00  0.00000000E+00
  0.00000000E+00  0.00000000E+00  0.00000000E+00
  0.00000000E+00  0.00000000E+00  0.00000000E+00
  0.00000000E+00  0.00000000E+00  0.00000000E+00
  0.00000000E+00  0.00000000E+00  0.00000000E+00
  0.00000000E+00  0.00000000E+00  0.00000000E+00
  0.00000000E+00  0.00000000E+00  0.00000000E+00
  0.00000000E+00  0.00000000E+00  0.00000000E+00
  0.00000000E+00  0.00000000E+00  0.00000000E+00
  0.00000000E+00  0.00000000E+00  0.00000000E+00
  0.00000000E+00  0.00000000E+00  0.00000000E+00
  0.00000000E+00  0.00000000E+00  0.00000000E+00
  0.00000000E+00  0.00000000E+00  0.00000000E+00
  0.00000000E+00  0.00000000E+00  0.00000000E+00
  0.00000000E+00  0.00000000E+00  0.00000000E+00
  0.00000000E+00  0.00000000E+00  0.00000000E+00
  0.00000000E+00  0.00000000E+00  0.00000000E+00
  0.00000000E+00  0.00000000E+00  0.00000000E+00
  0.00000000E+00  0.00000000E+00  0.00000000E+00
  0.00000000E+00  0.00000000E+00  0.00000000E+00
  0.00000000E+00  0.00000000E+00  0.00000000E+00
  0.00000000E+00  0.00000000E+00  0.00000000E+00
  0.00000000E+00  0.00000000E+00  0.00000000E+00
